computational_data/real_data/solutions/wdbc_trial_001_lex.sol
Optimal - objective value 5.64601900
      0 r_0                         0                0.964602
      1 r_1                         1                0.964602
      2 r_2                         0                0.955752
      3 r_3                         0                0.955752
      4 r_4                         0                0.938053
      5 r_5                         0                0.938053
      6 r_6                         0                0.929204
      7 r_7                         1                0.929204
      8 r_8                         0                0.929204
      9 r_9                         0                0.929204
     10 r_10                        0                0.929204
     11 r_11                        0                0.920354
     12 r_12                        0                0.920354
     13 r_13                        1                0.920354
     14 r_14                        0                0.920354
     15 r_15                        0                0.911504
     16 b_0                         1                0.964602
     17 b_1                         0                0.964602
     18 b_2                         0                0.955752
     19 b_3                         0                0.955752
     20 b_4                         0                0.938053
     21 b_5                         1                0.938053
     22 b_6                         0                0.929204
     23 b_7                         0                0.929204
     24 b_8                         0                0.929204
     25 b_9                         1                0.929204
     26 b_10                        0                0.929204
     27 b_11                        0                0.920354
     28 b_12                        0                0.920354
     29 b_13                        0                0.920354
     30 b_14                        0                0.920354
     31 b_15                        0                0.911504
