computational_data/real_data/logs/wdbc_trial_001_lex.log
Welcome to the CBC MILP Solver 
Version: 2.10.12 
Build Date: Aug 20 2024 

command line - /opt/homebrew/bin/cbc computational_data/real_data/lp/wdbc_trial_001_lex.lp seconds 10.0 solve solu computational_data/real_data/solutions/wdbc_trial_001_lex.sol (default strategy 1)
 CoinLpIO::readLp(): Maximization problem reformulated as minimization
Coin0009I Switching back to maximization to get correct duals etc
seconds was changed from 1e+100 to 10
Continuous objective value is 5.67762 - 0.00 seconds
Cgl0003I 0 fixed, 0 tightened bounds, 38 strengthened rows, 0 substitutions
Cgl0003I 0 fixed, 0 tightened bounds, 45 strengthened rows, 0 substitutions
Cgl0003I 0 fixed, 0 tightened bounds, 33 strengthened rows, 0 substitutions
Cgl0003I 0 fixed, 0 tightened bounds, 19 strengthened rows, 0 substitutions
Cgl0003I 0 fixed, 0 tightened bounds, 13 strengthened rows, 0 substitutions
Cgl0003I 0 fixed, 0 tightened bounds, 2 strengthened rows, 0 substitutions
Cgl0003I 0 fixed, 0 tightened bounds, 2 strengthened rows, 0 substitutions
Cgl0003I 0 fixed, 0 tightened bounds, 2 strengthened rows, 0 substitutions
Cgl0003I 0 fixed, 0 tightened bounds, 2 strengthened rows, 0 substitutions
Cgl0004I processed model has 68 rows, 32 columns (32 integer (32 of which binary)) and 369 elements
Cbc0038I Initial state - 24 integers unsatisfied sum - 4.95238
Cbc0038I Pass   1: suminf.    2.28571 (16) obj. 5.63717 iterations 16
Cbc0038I Pass   2: suminf.    0.00000 (0) obj. 5.63717 iterations 23
Cbc0038I Solution found of 5.63717
Cbc0038I Before mini branch and bound, 7 integers at bound fixed and 0 continuous
Cbc0038I Full problem 68 rows 32 columns, reduced to 53 rows 24 columns
Cbc0038I Mini branch and bound improved solution from 5.63717 to 5.64602 (0.00 seconds)
Cbc0038I Round again with cutoff of 5.64746
Cbc0038I Reduced cost fixing fixed 6 variables on major pass 2
Cbc0038I Pass   3: suminf.    3.50987 (22) obj. 5.64746 iterations 5
Cbc0038I Pass   4: suminf.    2.74448 (16) obj. 5.64746 iterations 5
Cbc0038I Pass   5: suminf.    2.74448 (16) obj. 5.64746 iterations 3
Cbc0038I Pass   6: suminf.    3.00000 (16) obj. 5.64897 iterations 15
Cbc0038I Pass   7: suminf.    2.74448 (16) obj. 5.64746 iterations 13
Cbc0038I Pass   8: suminf.    4.66667 (18) obj. 5.65192 iterations 16
Cbc0038I Pass   9: suminf.    2.74448 (16) obj. 5.64746 iterations 12
Cbc0038I Pass  10: suminf.    2.74448 (16) obj. 5.64746 iterations 2
Cbc0038I Pass  11: suminf.    2.74448 (16) obj. 5.64746 iterations 1
Cbc0038I Pass  12: suminf.    2.32592 (11) obj. 5.64746 iterations 16
Cbc0038I Pass  13: suminf.    2.32592 (11) obj. 5.64746 iterations 5
Cbc0038I Pass  14: suminf.    2.32592 (10) obj. 5.64746 iterations 10
Cbc0038I Pass  15: suminf.    2.32592 (10) obj. 5.64746 iterations 2
Cbc0038I Pass  16: suminf.    2.32592 (11) obj. 5.64746 iterations 9
Cbc0038I Pass  17: suminf.    2.65819 (11) obj. 5.64746 iterations 4
Cbc0038I Pass  18: suminf.    2.32592 (11) obj. 5.64746 iterations 4
Cbc0038I Pass  19: suminf.    2.32592 (10) obj. 5.64746 iterations 9
Cbc0038I Pass  20: suminf.    0.48875 (10) obj. 5.64746 iterations 5
Cbc0038I Pass  21: suminf.    0.48875 (10) obj. 5.64746 iterations 1
Cbc0038I Pass  22: suminf.    2.32592 (11) obj. 5.64746 iterations 7
Cbc0038I Pass  23: suminf.    2.32592 (11) obj. 5.64746 iterations 1
Cbc0038I Pass  24: suminf.    2.32592 (10) obj. 5.64746 iterations 11
Cbc0038I Pass  25: suminf.    0.48875 (10) obj. 5.64746 iterations 4
Cbc0038I Pass  26: suminf.    0.48875 (10) obj. 5.64746 iterations 2
Cbc0038I Pass  27: suminf.    2.32592 (11) obj. 5.64746 iterations 8
Cbc0038I Pass  28: suminf.    2.32592 (11) obj. 5.64746 iterations 3
Cbc0038I Pass  29: suminf.    2.32592 (10) obj. 5.64746 iterations 11
Cbc0038I Pass  30: suminf.    0.48875 (10) obj. 5.64746 iterations 4
Cbc0038I Pass  31: suminf.    0.48875 (10) obj. 5.64746 iterations 1
Cbc0038I Pass  32: suminf.    2.32592 (11) obj. 5.64746 iterations 7
Cbc0038I No solution found this major pass
Cbc0038I Before mini branch and bound, 6 integers at bound fixed and 0 continuous
Cbc0038I Full problem 68 rows 32 columns, reduced to 59 rows 26 columns
Cbc0038I Mini branch and bound did not improve solution (0.01 seconds)
Cbc0038I After 0.01 seconds - Feasibility pump exiting with objective of 5.64602 - took 0.01 seconds
Cbc0012I Integer solution of 5.646019 found by feasibility pump after 0 iterations and 0 nodes (0.01 seconds)
Cbc0038I Full problem 68 rows 32 columns, reduced to 51 rows 23 columns
Cbc0031I 3 added rows had average density of 9.3333333
Cbc0013I At root node, 16 cuts changed objective from 5.660346 to 5.646019 in 1 passes
Cbc0014I Cut generator 0 (Probing) - 2 row cuts average 2.0 elements, 0 column cuts (0 active)  in 0.000 seconds - new frequency is 1
Cbc0014I Cut generator 1 (Gomory) - 6 row cuts average 12.0 elements, 0 column cuts (0 active)  in 0.000 seconds - new frequency is 1
Cbc0014I Cut generator 2 (Knapsack) - 0 row cuts average 0.0 elements, 0 column cuts (0 active)  in 0.000 seconds - new frequency is -100
Cbc0014I Cut generator 3 (Clique) - 0 row cuts average 0.0 elements, 0 column cuts (0 active)  in 0.000 seconds - new frequency is -100
Cbc0014I Cut generator 4 (MixedIntegerRounding2) - 0 row cuts average 0.0 elements, 0 column cuts (0 active)  in 0.000 seconds - new frequency is -100
Cbc0014I Cut generator 5 (FlowCover) - 0 row cuts average 0.0 elements, 0 column cuts (0 active)  in 0.000 seconds - new frequency is -100
Cbc0014I Cut generator 6 (TwoMirCuts) - 4 row cuts average 10.5 elements, 0 column cuts (0 active)  in 0.000 seconds - new frequency is -100
Cbc0014I Cut generator 7 (ZeroHalf) - 4 row cuts average 4.0 elements, 0 column cuts (0 active)  in 0.000 seconds - new frequency is -100
Cbc0001I Search completed - best objective 5.646019000000001, took 0 iterations and 0 nodes (0.01 seconds)
Cbc0035I Maximum depth 0, 6 variables fixed on reduced cost
Cuts at root node changed objective from 5.66035 to 5.64602
Probing was tried 1 times and created 2 cuts of which 0 were active after adding rounds of cuts (0.000 seconds)
Gomory was tried 1 times and created 6 cuts of which 0 were active after adding rounds of cuts (0.000 seconds)
Knapsack was tried 1 times and created 0 cuts of which 0 were active after adding rounds of cuts (0.000 seconds)
Clique was tried 1 times and created 0 cuts of which 0 were active after adding rounds of cuts (0.000 seconds)
MixedIntegerRounding2 was tried 1 times and created 0 cuts of which 0 were active after adding rounds of cuts (0.000 seconds)
FlowCover was tried 1 times and created 0 cuts of which 0 were active after adding rounds of cuts (0.000 seconds)
TwoMirCuts was tried 1 times and created 4 cuts of which 0 were active after adding rounds of cuts (0.000 seconds)
ZeroHalf was tried 1 times and created 4 cuts of which 0 were active after adding rounds of cuts (0.000 seconds)

Result - Optimal solution found

Objective value:                5.64601900
Enumerated nodes:               0
Total iterations:               0
Time (CPU seconds):             0.01
Time (Wallclock seconds):       0.01

Total time (CPU seconds):       0.01   (Wallclock seconds):       0.02

